Pt Pd Pt Pd Pt Pd Pt Pd Pt Pd Pt Pd Pt Pd Pt Pd Pt Pd Pt Pd Pt Pd O 
 1.0000000000000000
     8.2964838636617628    0.0000000000000000    0.0000000000000000
     4.1482419318308814    7.1849657880187561    0.0000000000000000
     0.0000000000000000    0.0000000000000000   24.7740507084018802
 Pt  Pd  Pt  Pd  Pt  Pd  Pt  Pd  Pt  Pd  Pt  Pd  Pt  Pd  Pt  Pd  Pt  Pd  Pt  Pd  Pt  Pd  O  
   1   1   1   3   1   1   1   1   6   2   2   5   1   1   1   1   1   1   1   2   1   1   1
Selective dynamics
Cartesian
  0.0000000000000000  0.0000000000000000  9.0000000000000000   F   F   F
  2.7654946212205873  0.0000000000000000  9.0000000000000000   F   F   F
  5.5309892424411746  0.0000000000000000  9.0000000000000000   F   F   F
  1.3827473106102937  2.3949885960062520  9.0000000000000000   F   F   F
  4.1482419318308814  2.3949885960062520  9.0000000000000000   F   F   F
  6.9137365530514678  2.3949885960062520  9.0000000000000000   F   F   F
  2.7654946212205873  4.7899771920125040  9.0000000000000000   F   F   F
  5.5309892424411746  4.7899771920125040  9.0000000000000000   F   F   F
  8.2964838636617628  4.7899771920125040  9.0000000000000000   F   F   F
  1.3827473106102937  0.7983295320020840 11.2580169028006267   F   F   F
  4.1482419318308805  0.7983295320020840 11.2580169028006267   F   F   F
  6.9137365530514678  0.7983295320020840 11.2580169028006267   F   F   F
  2.7654946212205873  3.1933181280083360 11.2580169028006267   F   F   F
  5.5309892424411746  3.1933181280083360 11.2580169028006267   F   F   F
  8.2964838636617610  3.1933181280083360 11.2580169028006267   F   F   F
  4.1482419318308814  5.5883067240145881 11.2580169028006267   F   F   F
  6.9137365530514687  5.5883067240145881 11.2580169028006267   F   F   F
  9.6792311742720560  5.5883067240145881 11.2580169028006267   F   F   F
  0.0088753331663197  1.5857480340515067 13.5799702008899494   T   T   T
  2.7587408852690061  1.5941110856536027 13.5912698185057348   T   T   T
  5.5223699227801983  1.5957413425103972 13.5562284710052552   T   T   T
  1.3750408784522916  3.9562541600873575 13.5689577140008186   T   T   T
  4.1396122346638853  3.9812220622514984 13.5616962938419636   T   T   T
  6.9161843436903361  3.9852408855425150 13.5685439848058618   T   T   T
  2.7729626263992655  6.3881066421359742 13.5677533094644929   T   T   T
  5.5275921308165330  6.3997197695145562 13.5941807002682502   T   T   T
  8.2789498121183946  6.4050782897962799 13.5911199645689535   T   T   T
 -0.0241532716885302 -0.0305499088231393 15.7565087518994904   T   T   T
  2.7526537980404249 -0.0292194783424624 15.9131676165131584   T   T   T
  5.5666090158994956  0.0111409215441192 15.7647807050602538   T   T   T
  1.3496082214500169  2.3928486726934866 15.8965854726599947   T   T   T
  4.1976582858992106  2.3937832025865964 15.8157299586201141   T   T   T
  6.8860803787010632  2.3718979431296838 15.8609940361077921   T   T   T
  2.7856437065564532  4.8223659354020656 15.8822901929430937   T   T   T
  5.4899758555951719  4.7884359643273067 15.7516971307930032   T   T   T
  8.2850278453693527  4.8182196247202898 15.8620788669204007   T   T   T
  2.8196285293368510  1.6410795036322516 16.9693845732327695   T   T   T
